/*********************************************
 * OPL 12.6.0.0 Data
 * Author: Adrian Rodriguez Bazaga, Pau Rodriguez Esmerats
 * Creation Date: 10/12/2017 at 23:33:58
 *********************************************/

maxConsec=5;
maxPresence=16;
maxHours=10;
minHours=9;
hours=24;
demand= [30 37 35 30 15 31 29 36 28 37 13 12 5 8 5 8 2 2 0 1 0 0 0 0  ];
nNurses=64;
centroides=3;
